c 1 SubseaCS
c 2 HIPPS
c 3 ProductionSystem
c 4 ProductionSystem_1
c 5 SubseaField
c 6 SubseaField_1
c 7 XmasTree
c 8 unit
c 9 Mile
c 10 KM
c 11 productionSystemType
c 12 RateMaxShutinPress
c 13 WithPressRestriction
c 14 WithPressProtection
c 15 subseaField
c 16 XmasTree_1
c 17 TreeType
c 18 VXT
c 19 HXT
c 20 Mudline
c 21 BoreSize
c 22 Three
c 23 Four
c 24 Five
c 25 Seven
c 26 Nine
c 27 PressureRating
c 28 FiveKsi
c 29 TenKsi
c 30 FifteenKsi
c 31 TwentyKsi
c 32 InstallType
c 33 Jackup
c 34 Semisubmersible
c 35 Drillship
c 36 WellType
c 37 ProductionWell
c 38 WaterInjectionWell
c 39 GasInjectionWell
c 40 ServiceType
c 41 Sour
c 42 Neutral
c 43 Sweet
c 44 TreeCompletionType
c 45 Simple
c 46 DiverAssist
c 47 Diverless
c 48 Guidelineless
c 49 corrosiveityDegree
c 50 Noncorrosive
c 51 Slightylycorrosive
c 52 ModeratelytoHighly
c 53 Verycorrosive
c 54 materialType
c 55 AA
c 56 BB
c 57 CC
c 58 DD
c 59 EE
c 60 FF
c 61 HH
c 62 systemType
c 63 AllHydraulic
c 64 detailedType
c 65 DirectHydraulic
c 66 PilotedHydraulic
c 67 SequentialHydrualic
c 68 ElectroHydraulic
c 69 detailedType_2
c 70 DirectElectroHydraulic
c 71 MultipleElectroHydraulic
c 72 Autonomous
c 73 AllElectric
c 74 detailedType_3
c 75 DirectElectric
c 76 MultipleElectric
c 77 AutonomousElectric
c 78 signalType
c 79 HydraulicSignal
c 80 ElectricSignal
c 81 MCS
c 82 integrationType
c 83 FullyIntegrated
c 84 PrimaryInterface
c 85 SecondaryInterface
c 86 ControlModule
c 87 SEM
c 88 shockLevel
c 89 Q1
c 90 Q2
c 91 IdentificationType
c 92 Tag
c 93 NamePlate
c 94 ImprintedId
c 95 SEM_3
c 96 Device
c 97 type
c 98 Valve
c 99 installType
c 100 Buildin
c 101 Buildon
c 102 valveType
c 103 AnnulusMasterValve
c 104 ManifoldValve
c 105 InjectionChokeValve
c 106 MethanolInjectionValve
c 107 ProductMasterValve
c 108 chokeType
c 109 Positive
c 110 Adjustable
c 111 trimType
c 112 RotatingDisc
c 113 NeedleSeat
c 114 PlugCage
c 115 SlidingSleeveCage
c 116 Multistage
c 117 Sensor
c 118 sensorType
c 119 DownholeMonitor
c 120 TemperatureTransducer
c 121 SubseaFlowMeter
c 122 PositionSensor
c 123 SandDetector
c 124 ErosionProbs
c 125 SEMApp
c 126 DeviceController
c 127 operationMode
c 128 Normal
c 129 Maintenance
c 130 type_2
c 131 SensorController
c 132 scType
c 133 DownholeMonitorController
c 134 TemperatureTransducerController
c 135 SubseaFlowMeterController
c 136 PositionSensorController
c 137 SandDetectorController
c 138 ErosionProbsController
c 139 ValveController
c 140 vcType
c 141 annulusMasterValveController
c 142 ManifoldValveController
c 143 InjectionChokeValveController
c 144 MethanolInjectionValveController
c 145 ProductMasterValveController
p cnf 145 378
1 0
-2 1 0
-3 1 0
1 -62 0
1 -78 0
-81 1 0
-86 1 0
3 -1 0
-1 62 0
-1 78 0
81 -1 0
86 -1 0
3 -4 0
3 -11 0
3 -15 0
-3 4 0
-3 11 0
-3 15 0
4 -5 0
-4 5 0
5 -6 0
5 -8 0
-5 6 0
-5 8 0
6 -7 0
-6 7 0
-9 8 0
-10 8 0
10 9 -8 0
-10 -9 0
-12 11 0
-13 11 0
-14 11 0
12 14 13 -11 0
-12 -13 0
-12 -14 0
-14 -13 0
-16 15 0
-17 16 0
-21 16 0
-27 16 0
-32 16 0
-36 16 0
-40 16 0
-44 16 0
16 -49 0
16 -54 0
17 -16 0
21 -16 0
27 -16 0
32 -16 0
36 -16 0
40 -16 0
44 -16 0
-16 49 0
-16 54 0
17 -18 0
-19 17 0
-20 17 0
19 20 -17 18 0
-19 -18 0
-20 -18 0
-19 -20 0
21 -22 0
21 -23 0
21 -24 0
21 -25 0
21 -26 0
-21 24 23 26 25 22 0
-23 -22 0
-24 -22 0
-25 -22 0
-26 -22 0
-24 -23 0
-23 -25 0
-23 -26 0
-24 -25 0
-24 -26 0
-26 -25 0
-28 27 0
27 -29 0
-30 27 0
27 -31 0
30 28 -27 29 31 0
-28 -29 0
-30 -28 0
-28 -31 0
-30 -29 0
-29 -31 0
-30 -31 0
32 -33 0
32 -34 0
-35 32 0
35 -32 33 34 0
-33 -34 0
-35 -33 0
-35 -34 0
-37 36 0
-38 36 0
-39 36 0
39 37 38 -36 0
-37 -38 0
-39 -37 0
-39 -38 0
40 -41 0
-42 40 0
40 -43 0
42 -40 41 43 0
-42 -41 0
-41 -43 0
-42 -43 0
-45 44 0
-46 44 0
-47 44 0
-48 44 0
46 47 48 45 -44 0
-46 -45 0
-47 -45 0
-48 -45 0
-46 -47 0
-46 -48 0
-47 -48 0
-50 49 0
-51 49 0
-52 49 0
-53 49 0
52 50 51 53 -49 0
-50 -51 0
-52 -50 0
-50 -53 0
-52 -51 0
-51 -53 0
-52 -53 0
-55 54 0
-56 54 0
-57 54 0
-58 54 0
-59 54 0
-60 54 0
-61 54 0
55 56 57 58 59 60 61 -54 0
-55 -56 0
-55 -57 0
-55 -58 0
-55 -59 0
-55 -60 0
-55 -61 0
-56 -57 0
-56 -58 0
-56 -59 0
-56 -60 0
-56 -61 0
-57 -58 0
-57 -59 0
-57 -60 0
-57 -61 0
-58 -59 0
-58 -60 0
-58 -61 0
-59 -60 0
-59 -61 0
-60 -61 0
-63 62 0
-68 62 0
-73 62 0
73 63 68 -62 0
-63 -68 0
-73 -63 0
-73 -68 0
63 -64 0
-63 64 0
-65 64 0
-66 64 0
-67 64 0
65 66 67 -64 0
-65 -66 0
-65 -67 0
-66 -67 0
68 -69 0
-68 69 0
-70 69 0
-71 69 0
-72 69 0
72 70 71 -69 0
-70 -71 0
-72 -70 0
-72 -71 0
73 -74 0
-73 74 0
-75 74 0
-76 74 0
-77 74 0
77 75 76 -74 0
-75 -76 0
-77 -75 0
-77 -76 0
-79 78 0
-80 78 0
80 79 -78 0
-80 -79 0
81 -82 0
-81 82 0
-83 82 0
-84 82 0
-85 82 0
83 84 85 -82 0
-83 -84 0
-83 -85 0
-84 -85 0
86 -87 0
86 -125 0
-86 87 0
-86 125 0
87 -88 0
-91 87 0
87 -95 0
-87 88 0
91 -87 0
-87 95 0
-89 88 0
-90 88 0
89 90 -88 0
-89 -90 0
91 -92 0
91 -93 0
91 -94 0
-91 94 93 92 0
-93 -92 0
-94 -92 0
-94 -93 0
-96 95 0
96 -95 0
96 -97 0
-96 97 0
-98 97 0
-117 97 0
117 98 -97 0
-117 -98 0
98 -99 0
98 -102 0
-98 99 0
-98 102 0
-100 99 0
-101 99 0
100 101 -99 0
-100 -101 0
-103 102 0
-104 102 0
-105 102 0
-106 102 0
-107 102 0
103 105 104 106 107 -102 0
-103 -104 0
-103 -105 0
-103 -106 0
-103 -107 0
-105 -104 0
-104 -106 0
-104 -107 0
-105 -106 0
-105 -107 0
-106 -107 0
107 -108 0
107 -111 0
-107 108 0
-107 111 0
-109 108 0
-110 108 0
110 109 -108 0
-110 -109 0
-112 111 0
-113 111 0
-114 111 0
-115 111 0
-116 111 0
116 113 114 112 115 -111 0
-113 -112 0
-114 -112 0
-112 -115 0
-116 -112 0
-113 -114 0
-113 -115 0
-116 -113 0
-114 -115 0
-116 -114 0
-116 -115 0
117 -118 0
-117 118 0
-119 118 0
-120 118 0
-121 118 0
-122 118 0
-123 118 0
-124 118 0
119 124 122 123 121 120 -118 0
-119 -120 0
-119 -121 0
-119 -122 0
-119 -123 0
-119 -124 0
-121 -120 0
-122 -120 0
-123 -120 0
-124 -120 0
-122 -121 0
-123 -121 0
-124 -121 0
-122 -123 0
-124 -122 0
-124 -123 0
-126 125 0
126 -127 0
126 -130 0
-126 127 0
-126 130 0
-128 127 0
-129 127 0
129 128 -127 0
-129 -128 0
-131 130 0
-139 130 0
131 139 -130 0
-131 -139 0
131 -132 0
-131 132 0
-133 132 0
-134 132 0
-135 132 0
-136 132 0
-137 132 0
-138 132 0
133 138 136 137 135 134 -132 0
-133 -134 0
-133 -135 0
-133 -136 0
-133 -137 0
-133 -138 0
-135 -134 0
-136 -134 0
-137 -134 0
-138 -134 0
-136 -135 0
-137 -135 0
-138 -135 0
-136 -137 0
-138 -136 0
-138 -137 0
139 -140 0
-139 140 0
-141 140 0
-142 140 0
-143 140 0
-144 140 0
-145 140 0
143 142 144 145 141 -140 0
-142 -141 0
-143 -141 0
-144 -141 0
-145 -141 0
-143 -142 0
-142 -144 0
-142 -145 0
-143 -144 0
-143 -145 0
-144 -145 0
-105 143 0
-104 142 0
-103 141 0
-121 135 0
-122 136 0
-73 80 0
-119 133 0
-120 134 0
-63 79 0
-107 145 0
-123 137 0
-124 138 0
-106 144 0
